1 3 12 1
0 160
 0 30 40 0   0 0 0
 1 37 52 0   7 1 1 1
 2 49 49 0  30 1 1 1
 3 52 64 0  16 1 1 1
 4 20 26 0   9 1 1 1
 5 40 30 0  21 1 1 1
 6 21 47 0  15 1 1 1
 7 17 63 0  19 1 1 1
 8 31 62 0  23 1 1 1
 9 52 33 0  11 1 1 1
10 51 21 0   5 1 1 1
11 42 41 0  19 1 1 1
12 31 32 0  29 1 1 1



